width = 33;
ICs_number = 23;
IC_widths = [3, 3, 3, 3, 3, 3, 3, 3, 3, 3, 3, 3, 3, 3, 3, 4, 4, 4, 4, 4, 4, 4, 7];
IC_heights = [3, 4, 5, 6, 7, 8, 9, 10, 13, 14, 15, 17, 24, 30, 33, 3, 4, 6, 10, 12, 14, 17, 33];